SAT
64 18 -85 -15 -40 93 63 33 -56 75 52 -61 -5 71 17 6 27 -66 29 24 -4 -22 -99 -49 -80 92 20 90 73 69 -60 -39 -53 89 -7 84 -83 67 35 8 -41 -21 31 -76 -81 2 -59 37 14 98 79 26 78 -38 32 55 50 -91 -65 -95 -77 28 -30 -74 -97 -10 51 13 94 88 47 86 -48 25 68 -82 96 3 -62 57 -23 -54 36 -42 -100 -43 -70 -12 72 58 -16 -87 34 11 46 -1 9 45 -19 44 0
